nApps = 228
nRes = 9
nActs = 456
nNetworks = 6

assignmentToResources = [1,2,2,1,1,2,1,1,2,1,3,2,2,2,1,2,2,1,2,2,2,2,3,3,2,2,2,2,1,1,1,1,3,2,1,2,3,2,2,3,2,1,3,3,1,2,3,2,3,3,1,2,1,3,2,1,3,2,1,3,3,1,3,3,2,1,3,3,2,2,3,2,1,2,1,1,1,2,2,2,3,1,3,3,3,2,1,3,3,3,1,1,1,3,1,1,1,1,1,3,4,4,4,5,5,5,5,5,4,4,4,4,4,5,4,4,4,4,4,4,4,4,4,4,6,6,5,5,4,5,5,4,4,4,5,5,5,5,5,5,5,5,6,6,6,6,5,5,5,5,5,5,5,4,4,4,4,4,4,6,6,5,4,4,4,4,4,5,5,5,5,6,6,5,5,4,4,4,4,6,6,6,6,6,6,4,4,5,5,6,6,6,5,5,5,5,6,6,6,4,4,4,4,6,6,5,4,6,6,5,5,5,5,5,4,6,6,6,4,4,6,6,6,4,6,6,6,6,6,6,6,4,5,4,4,4,4,4,5,5,5,5,5,6,6,4,4,6,6,6,4,4,4,4,4,4,5,7,6,7,5,7,4,9,4,8,5,7,5,7,4,8,4,9,6,8,5,7,6,8,6,8,4,8,5,9,4,8,5,7,4,9,6,8,5,9,4,8,6,8,9,8,8,9,7,9,7,9,9,8,8,8,8,9,8,9,9,8,8,9,8,9,9,8,7,8,9,9,8,7,9,8,8,8,7,9,7,7,9,9,9,7,7,8,7,7,9,9,9,7,7,9,9,9,9,9,9,8,9,8,8,9,8,9,9,8,9,7,9,9,9,7,8,9,7,9,9,9,9,8,7,8,8,7,8,9,8,7,7,8,7,8,7,9,9,7,8,8,7,8,9,8,8,7,7,9,9,7,7,9,9,7,9,7,8,8,8,7,9,9,7,7,7,9,7,8,8,7,8,7,8,9,7,8,9,8,9,8,9,9,7,7,7,8,7,9,9,7,8,7,8,9,8,9,8,8];

processingTimes = [144,144,120,112,128,80,104,80,168,160,56,88,96,136,72,120,136,104,88,80,120,56,128,72,56,136,120,56,104,80,168,168,136,112,64,48,112,168,80,152,152,120,120,64,64,72,168,80,120,120,128,128,136,104,128,104,104,56,128,176,112,112,128,152,72,56,128,128,96,128,152,160,64,64,144,136,64,136,136,128,128,72,64,112,64,56,160,112,128,88,128,128,136,136,128,136,136,136,144,112,3,4,3,500,4,3,3,3,500,4,4,3,4,500,3,3,4,500,4,4,4,500,4,500,3,500,3,4,4,3,4,3,23,4,3,5,5,4,4,4,500,5,500,4,4,4,4,4,4,4,500,4,13,3,4,4,3,4,4,4,3,500,4,8,4,4,4,23,3,4,4,4,500,5,500,4,500,4,4,4,4,4,500,4,3,4,13,4,3,8,5,3,100,4,4,3,3,5,4,500,3,500,4,5,4,500,8,500,500,4,100,4,4,4,4,4,500,4,4,4,4,5,3,4,4,500,5,5,8,100,100,4,100,13,13,4,500,4,500,4,5,4,4,3,4,4,500,3,8,8,4,4,4,4,500,4,500,500,3,3,500,500,500,500,500,500,500,500,500,500,500,500,3,3,5,5,4,4,5,5,5,5,3,3,3,3,4,4,4,4,13,13,4,4,3,3,3,3,4,4,3,4,3,500,4,3,3,3,500,4,4,3,4,500,3,3,4,500,4,4,4,500,4,500,3,500,3,4,4,3,4,3,23,4,3,5,5,4,4,4,500,5,500,4,4,4,4,4,4,4,500,4,13,3,4,4,3,4,4,4,3,500,4,8,4,4,4,23,3,4,4,4,500,5,500,4,500,4,4,4,4,4,500,4,3,4,13,4,3,8,5,3,100,4,4,3,3,5,4,500,3,500,4,5,4,500,8,500,500,4,100,4,4,4,4,4,500,4,4,4,4,5,3,4,4,500,5,5,8,100,100,4,100,13,13,4,500,4,500,4,5,4,4,3,4,4,500,3,8,8,4,4,4,4,500,4];

periods = [2000,10000,10000,100000,10000,20000,10000,100000,100000,20000,10000,20000,20000,100000,10000,20000,50000,10000,100000,10000,20000,100000,20000,10000,20000,100000,100000,10000,20000,100000,100000,20000,20000,20000,10000,10000,100000,10000,100000,20000,10000,10000,100000,10000,10000,100000,100000,1000,20000,20000,100000,100000,100000,1000,100000,10000,10000,1000,10000,100000,10000,20000,100000,20000,10000,1000,50000,20000,100000,10000,1000,100000,10000,1000,1000,20000,100000,20000,10000,1000,10000,100000,2000,100000,2000,20000,100000,20000,10000,20000,10000,10000,100000,10000,100000,10000,20000,50000,10000,10000,2000,2000,2000,10000,10000,10000,10000,10000,100000,100000,100000,100000,10000,20000,100000,100000,100000,100000,100000,100000,100000,20000,20000,20000,10000,10000,20000,100000,10000,50000,50000,10000,10000,10000,100000,100000,100000,10000,10000,10000,10000,100000,20000,20000,20000,10000,20000,20000,20000,20000,10000,10000,10000,20000,100000,100000,20000,20000,20000,20000,20000,20000,10000,10000,10000,10000,10000,10000,10000,10000,10000,20000,20000,10000,10000,10000,10000,10000,10000,100000,100000,100000,10000,10000,10000,10000,10000,100000,100000,100000,100000,100000,1000,1000,1000,1000,20000,20000,20000,100000,100000,100000,100000,1000,1000,100000,10000,10000,10000,1000,1000,1000,1000,1000,10000,100000,100000,100000,20000,20000,100000,100000,20000,1000,50000,20000,20000,20000,1000,1000,1000,10000,1000,1000,1000,100000,100000,100000,10000,10000,1000,1000,1000,2000,100000,100000,100000,20000,10000,10000,100000,10000,10000,10000,10000,10000,10000,10000,10000,10000,20000,20000,20000,20000,100000,100000,100000,100000,100000,100000,100000,100000,10000,10000,10000,10000,10000,10000,20000,20000,20000,20000,20000,20000,10000,10000,10000,10000,10000,10000,10000,10000,100000,100000,100000,100000,100000,100000,1000,1000,2000,2000,2000,10000,10000,10000,10000,10000,100000,100000,100000,100000,10000,20000,100000,100000,100000,100000,100000,100000,100000,20000,20000,20000,10000,10000,20000,100000,10000,50000,50000,10000,10000,10000,100000,100000,100000,10000,10000,10000,10000,100000,20000,20000,20000,10000,20000,20000,20000,20000,10000,10000,10000,20000,100000,100000,20000,20000,20000,20000,20000,20000,10000,10000,10000,10000,10000,10000,10000,10000,10000,20000,20000,10000,10000,10000,10000,10000,10000,100000,100000,100000,10000,10000,10000,10000,10000,100000,100000,100000,100000,100000,1000,1000,1000,1000,20000,20000,20000,100000,100000,100000,100000,1000,1000,100000,10000,10000,10000,1000,1000,1000,1000,1000,10000,100000,100000,100000,20000,20000,100000,100000,20000,1000,50000,20000,20000,20000,1000,1000,1000,10000,1000,1000,1000,100000,100000,100000,10000,10000,1000,1000,1000,2000,100000,100000,100000,20000,10000,10000,100000,10000,10000,10000,10000,10000];

assignmentToClusters = [1,2,3,4,5,6,7,8,9,10,11,12,13,14,15,16,17,18,19,20,21,14,22,23,16,24,25,26,13,14,27,28,29,30,31,23,32,33,34,35,7,36,37,38,23,14,39,40,16,41,42,14,43,44,32,45,46,44,47,48,49,50,32,51,15,52,53,54,25,23,55,56,11,57,58,21,14,59,60,61,15,34,62,63,64,16,65,16,23,13,15,66,67,11,68,23,69,70,71,72,73,74,75,76,77,78,79,80,81,82,83,84,85,86,87,88,89,90,91,92,93,94,95,96,97,98,99,100,101,102,103,104,105,106,107,108,109,110,111,112,113,114,115,116,117,118,119,120,121,122,123,124,125,126,127,128,129,130,131,132,133,134,135,136,137,138,139,140,141,142,143,144,145,146,147,148,149,150,151,152,153,154,155,156,157,158,159,160,161,162,163,164,165,166,167,168,169,170,171,172,173,174,175,176,177,178,179,180,181,182,183,184,185,186,187,188,189,190,191,192,193,194,195,196,197,198,199,200,201,202,203,204,205,206,207,208,209,210,211,212,213,214,215,216,217,218,219,220,221,222,223,224,225,226,227,228,7,7,11,11,13,13,13,13,14,14,14,14,14,14,14,14,15,15,15,15,15,15,16,16,16,16,21,21,23,23,23,23,23,23,23,23,32,32,32,32,34,34,44,44,73,74,75,76,77,78,79,80,81,82,83,84,85,86,87,88,89,90,91,92,93,94,95,96,97,98,99,100,101,102,103,104,105,106,107,108,109,110,111,112,113,114,115,116,117,118,119,120,121,122,123,124,125,126,127,128,129,130,131,132,133,134,135,136,137,138,139,140,141,142,143,144,145,146,147,148,149,150,151,152,153,154,155,156,157,158,159,160,161,162,163,164,165,166,167,168,169,170,171,172,173,174,175,176,177,178,179,180,181,182,183,184,185,186,187,188,189,190,191,192,193,194,195,196,197,198,199,200,201,202,203,204,205,206,207,208,209,210,211,212,213,214,215,216,217,218,219,220,221,222,223,224,225,226,227,228];

precedenceAdjList = [[],[],[],[],[],[],[257],[],[],[],[],[],[],[51],[],[279],[],[],[],[],[283],[271],[],[88,285],[15],[],[],[],[261],[267],[],[],[],[],[],[287],[],[],[297],[],[],[],[],[],[],[],[],[],[],[],[],[265],[],[],[293],[],[],[299],[],[],[],[],[295],[],[275],[],[],[],[26],[],[],[],[259],[],[],[],[269],[],[],[],[273],[],[],[],[],[24,281],[],[],[291],[263],[277],[],[],[10],[],[289],[],[],[],[],[],[],[],[],[],[],[],[],[],[],[],[],[],[],[],[],[],[],[],[],[],[],[],[],[],[],[],[],[],[],[],[],[],[],[],[],[],[],[],[],[],[],[],[],[],[],[],[],[],[],[],[],[],[],[],[],[],[],[],[],[],[],[],[],[],[],[],[],[],[],[],[],[],[],[],[],[],[],[],[],[],[],[],[],[],[],[],[],[],[],[],[],[],[],[],[],[],[],[],[],[],[],[],[],[],[],[],[],[],[],[],[],[],[],[],[],[],[],[],[],[],[],[],[],[],[],[],[],[],[],[],[],[],[],[],[],[],[],[],[],[],[],[],[],[],[],[],[],[],[],[],[],[],[],[],[],[40],[256],[93],[258],[12],[260],[28],[262],[29],[264],[45],[266],[51],[268],[76],[270],[14],[272],[80],[274],[64],[276],[87],[278],[48],[280],[75],[282],[35],[284],[95],[286],[69],[288],[44],[290],[36],[292],[54],[294],[81],[296],[53],[298],[100],[101],[102],[103],[104],[105],[106],[107],[108],[109],[110],[111],[112],[113],[114],[115],[116],[117],[118],[119],[120],[121],[122],[123],[124],[125],[126],[127],[128],[129],[130],[131],[132],[133],[134],[135],[136],[137],[138],[139],[140],[141],[142],[143],[144],[145],[146],[147],[148],[149],[150],[151],[152],[153],[154],[155],[156],[157],[158],[159],[160],[161],[162],[163],[164],[165],[166],[167],[168],[169],[170],[171],[172],[173],[174],[175],[176],[177],[178],[179],[180],[181],[182],[183],[184],[185],[186],[187],[188],[189],[190],[191],[192],[193],[194],[195],[196],[197],[198],[199],[200],[201],[202],[203],[204],[205],[206],[207],[208],[209],[210],[211],[212],[213],[214],[215],[216],[217],[218],[219],[220],[221],[222],[223],[224],[225],[226],[227],[228],[229],[230],[231],[232],[233],[234],[235],[236],[237],[238],[239],[240],[241],[242],[243],[244],[245],[246],[247],[248],[249],[250],[251],[252],[253],[254],[255]];